/*********************************************
 * OPL 12.6.0.0 Data
 * Author: Adrian Rodriguez Bazaga, Pau Rodriguez Esmerats
 * Creation Date: 21/11/2017 at 20:50:30
 *********************************************/

nNurses=140;
maxConsec=2;
maxPresence=7;
maxHours=5;
minHours=1;
demand= [27 35 57 42 35 57 42 36 43 17 6 5 7 8 8 7 5 6 2 3 25 47 23 41  ];
